102
101
103
110
111
112
114
121
128
138
138
141
134
143
149
155
153
159
160
164
164
166
173
172
155
175
176
178
178
177
177
189
183
191
195
196
198
198
198
199
201
202
203
191
207
207
193
208
211
211
212
213
214
207
199
208
217
195
214
217
211
213
215
223
223
225
226
226
222
243
246
247
250
261
278
287
291
299
300
284
302
304
302
307
305
308
309
310
315
301
317
317
318
319
324
325
325
329
329
329
332
333
316
335
332
340
343
301
342
338
347
346
346
341
351
350
352
352
352
353
346
354
337
356
353
357
357
358
360
332
343
335
339
369
340
370
331
335
371
371
332
372
373
373
350*
359
368
376
376
376
375
377
380
380
351
381
382
356
382
383
383
384
385
386
343
387
388
388
358
390
392
393
394
396
397
400
375
403
362
406
406
391
403
411
43
43
48
571
749
80
8
8
96
